[[22, 32, 49, 43, 33, 10, 9, 8, 41, 19, 45, 3, 18, 31, 17, 21, 42, 7, 2, 30, 23, 20, 50], [16, 29, 47, 26, 28, 27, 13, 14, 52, 11, 51, 12, 25, 4, 6, 5, 15, 24, 48, 38, 40, 37, 46, 44, 34, 39, 36, 35]]